Minimize
  - 9 y_0 - 8 y_1 - 9 y_2 - 5 y_3 - 7 y_4 - 7 y_5 - 10 y_6 - 11 y_7 - 9 y_8
   - 11 y_9 - 8 y_10 - y_11 - 4 y_12 - 5 y_13 - 11 y_14 - 5 y_15 - 7 y_16
   - 3 y_17 - 8 y_19 - 8 y_20 - 7 y_21 - 2 y_22 - 7 y_23 - 9 y_24 - 4 y_25
   - 6 y_26 - 5 y_27 - 4 y_28 - 6 y_29 - 10 y_30 - 9 y_31 - 5 y_32 - 9 y_33
   - 4 y_34 - 8 y_35 - 5 y_36 - 12 y_37 - 8 y_38 - 8 y_39 - 3 y_40 - 8 y_41
   - 6 y_42 - 2 y_43 - 4 y_44 - 5 y_45 - 2 y_46 - 7 y_47 - 12 y_48 - 7 y_49
   - 9 y_50 - 7 y_51 - 9 y_52 - 4 y_53 - 5 y_54 - 10 y_55 - 6 y_56 - 7 y_57
   - 10 y_58 - 6 y_59 - 11 y_60 - 3 y_61 - 10 y_62 - 2 y_63 - 6 y_64
   - 5 y_65 - 5 y_66 - 5 y_67 - 9 y_68 - 11 y_69 - 9 y_70 - 4 y_71 - 7 y_72
   - 8 y_73 - 10 y_74 - 5 y_75 - 10 y_76 - 12 y_77 - 5 y_78 - 5 y_79
   - 8 y_80 - 7 y_81 - 3 y_82 - 8 y_83 - 12 y_84 - 10 y_85 - 6 y_86
   - 8 y_87 - 7 y_88 - 11 y_89 - 9 y_90 - 6 y_91 - 9 y_92 - 11 y_93
   - 9 y_94 - 7 y_95 - 8 y_96 - 5 y_97 - 9 y_98 - 2 y_99 + 700 Constant
Subject To
 c_0: y_96 = 1
 c_1_0: y_0 + y_8 + y_16 + y_20 + y_38 + y_52 + y_55 + y_68 + y_73 + y_76
   + y_92 + y_94 + y_96 + y_98 >= 1
 c_1_1: y_1 + y_5 + y_10 + y_24 + y_35 + y_39 + y_49 + y_50 + y_51 + y_62
   + y_72 + y_81 + y_95 >= 1
 c_1_2: y_2 + y_19 + y_47 + y_80 + y_87 >= 1
 c_1_3: y_3 + y_25 + y_27 + y_28 + y_32 + y_36 + y_42 + y_44 + y_45 + y_53
   + y_54 + y_61 + y_66 + y_71 + y_79 >= 1
 c_1_4: y_4 + y_5 + y_10 + y_16 + y_20 + y_31 + y_32 + y_36 + y_38 + y_42
   + y_49 + y_54 + y_57 + y_65 + y_66 + y_72 + y_73 + y_95 >= 1
 c_1_5: y_1 + y_4 + y_5 + y_10 + y_24 + y_35 + y_39 + y_49 + y_51 + y_65
   + y_72 + y_81 + y_86 + y_95 >= 1
 c_1_6: y_6 + y_50 + y_58 + y_70 + y_74 + y_80 + y_85 >= 1
 c_1_7: y_7 + y_9 + y_14 + y_30 + y_37 + y_60 + y_62 + y_74 >= 1
 c_1_8: y_0 + y_8 + y_9 + y_10 + y_20 + y_30 + y_31 + y_38 + y_68 + y_69
   + y_73 + y_76 + y_90 + y_92 + y_93 + y_94 + y_95 >= 1
 c_1_9: y_7 + y_8 + y_9 + y_14 + y_30 + y_37 + y_48 + y_60 + y_62 + y_69
   + y_77 + y_84 + y_89 + y_90 + y_93 >= 1
 c_1_10: y_1 + y_4 + y_5 + y_8 + y_10 + y_20 + y_24 + y_30 + y_31 + y_35
   + y_39 + y_49 + y_72 + y_73 + y_90 + y_94 + y_95 >= 1
 c_1_11: y_11 + y_18 + y_22 + y_43 + y_46 + y_63 + y_99 >= 1
 c_1_12: y_12 + y_13 + y_15 + y_17 + y_40 + y_56 + y_78 + y_82 >= 1
 c_1_13: y_12 + y_13 + y_15 + y_17 + y_26 + y_29 + y_34 + y_40 + y_56
   + y_64 + y_67 + y_75 + y_78 + y_82 + y_86 + y_97 >= 1
 c_1_14: y_7 + y_9 + y_14 + y_30 + y_37 + y_60 + y_62 >= 1
 c_1_15: y_12 + y_13 + y_15 + y_17 + y_26 + y_29 + y_34 + y_40 + y_56
   + y_64 + y_67 + y_75 + y_78 + y_82 + y_97 >= 1
 c_1_16: y_0 + y_4 + y_16 + y_20 + y_23 + y_36 + y_38 + y_42 + y_52 + y_54
   + y_57 + y_66 + y_73 + y_95 + y_96 >= 1
 c_1_17: y_12 + y_13 + y_15 + y_17 + y_22 + y_40 + y_78 + y_82 >= 1
 c_1_18: y_11 + y_18 + y_22 + y_43 + y_63 + y_99 >= 1
 c_1_19: y_2 + y_19 + y_26 + y_47 + y_56 + y_64 + y_80 + y_87 >= 1
 c_1_20: y_0 + y_4 + y_8 + y_10 + y_16 + y_20 + y_31 + y_38 + y_52 + y_57
   + y_68 + y_73 + y_76 + y_90 + y_92 + y_94 + y_95 + y_98 >= 1
 c_1_21: y_21 + y_23 + y_41 + y_59 + y_83 + y_88 + y_91 >= 1
 c_1_22: y_11 + y_17 + y_18 + y_22 + y_43 + y_82 >= 1
 c_1_23: y_16 + y_21 + y_23 + y_36 + y_42 + y_54 + y_59 + y_88 + y_91
   + y_96 >= 1
 c_1_24: y_1 + y_5 + y_10 + y_24 + y_30 + y_35 + y_39 + y_50 + y_62 + y_74
   >= 1
 c_1_25: y_3 + y_25 + y_27 + y_28 + y_32 + y_34 + y_40 + y_43 + y_44 + y_46
   + y_61 + y_65 + y_66 + y_67 + y_71 + y_75 + y_79 + y_86 >= 1
 c_1_26: y_13 + y_15 + y_19 + y_26 + y_29 + y_47 + y_56 + y_64 + y_67
   + y_78 + y_87 + y_97 >= 1
 c_1_27: y_3 + y_25 + y_27 + y_28 + y_32 + y_34 + y_40 + y_42 + y_44 + y_49
   + y_51 + y_65 + y_66 + y_67 + y_75 + y_79 + y_86 + y_97 >= 1
 c_1_28: y_3 + y_25 + y_27 + y_28 + y_32 + y_36 + y_42 + y_44 + y_45 + y_53
   + y_54 + y_61 + y_65 + y_66 + y_71 + y_79 >= 1
 c_1_29: y_13 + y_15 + y_26 + y_29 + y_56 + y_64 + y_67 + y_75 + y_81
   + y_87 + y_97 >= 1
 c_1_30: y_7 + y_8 + y_9 + y_10 + y_14 + y_24 + y_30 + y_31 + y_37 + y_60
   + y_62 + y_69 + y_89 + y_90 + y_94 >= 1
 c_1_31: y_4 + y_8 + y_10 + y_20 + y_30 + y_31 + y_38 + y_39 + y_68 + y_69
   + y_72 + y_73 + y_76 + y_90 + y_92 + y_94 + y_95 >= 1
 c_1_32: y_3 + y_4 + y_25 + y_27 + y_28 + y_32 + y_34 + y_36 + y_42 + y_44
   + y_45 + y_49 + y_54 + y_57 + y_65 + y_66 + y_71 + y_72 + y_75 + y_79
   + y_86 >= 1
 c_1_33: y_33 + y_41 + y_83 >= 1
 c_1_34: y_13 + y_15 + y_25 + y_27 + y_32 + y_34 + y_40 + y_44 + y_65
   + y_67 + y_75 + y_79 + y_82 + y_86 + y_97 >= 1
 c_1_35: y_1 + y_5 + y_10 + y_24 + y_35 + y_39 + y_50 + y_51 + y_62 + y_72
   + y_81 >= 1
 c_1_36: y_3 + y_4 + y_16 + y_23 + y_28 + y_32 + y_36 + y_42 + y_44 + y_45
   + y_53 + y_54 + y_57 + y_61 + y_65 + y_66 + y_71 + y_79 >= 1
 c_1_37: y_7 + y_9 + y_14 + y_30 + y_37 + y_48 + y_60 + y_69 + y_77 + y_84
   + y_89 + y_93 >= 1
 c_1_38: y_0 + y_4 + y_8 + y_16 + y_20 + y_31 + y_38 + y_52 + y_57 + y_68
   + y_73 + y_92 + y_94 + y_95 + y_96 + y_98 >= 1
 c_1_39: y_1 + y_5 + y_10 + y_24 + y_31 + y_35 + y_39 + y_49 + y_50 + y_51
   + y_62 + y_72 + y_81 + y_90 + y_95 >= 1
 c_1_40: y_12 + y_13 + y_15 + y_17 + y_25 + y_27 + y_34 + y_40 + y_43
   + y_44 + y_46 + y_67 + y_75 + y_82 + y_97 >= 1
 c_1_41: y_21 + y_33 + y_41 + y_83 + y_88 >= 1
 c_1_42: y_3 + y_4 + y_16 + y_23 + y_27 + y_28 + y_32 + y_36 + y_42 + y_45
   + y_49 + y_53 + y_54 + y_57 + y_65 + y_66 + y_71 + y_79 + y_95 >= 1
 c_1_43: y_11 + y_18 + y_22 + y_25 + y_40 + y_43 + y_44 + y_46 + y_61
   + y_63 + y_99 >= 1
 c_1_44: y_3 + y_25 + y_27 + y_28 + y_32 + y_34 + y_36 + y_40 + y_43 + y_44
   + y_45 + y_46 + y_61 + y_65 + y_66 + y_71 + y_75 + y_79 + y_86 >= 1
 c_1_45: y_3 + y_28 + y_32 + y_36 + y_42 + y_44 + y_45 + y_53 + y_54 + y_61
   + y_66 + y_71 + y_79 + y_91 >= 1
 c_1_46: y_11 + y_25 + y_40 + y_43 + y_44 + y_46 + y_61 + y_63 + y_99 >= 1
 c_1_47: y_2 + y_19 + y_26 + y_47 + y_56 + y_64 + y_87 >= 1
 c_1_48: y_9 + y_37 + y_48 + y_69 + y_77 + y_84 + y_89 + y_93 >= 1
 c_1_49: y_1 + y_4 + y_5 + y_10 + y_27 + y_32 + y_39 + y_42 + y_49 + y_51
   + y_57 + y_65 + y_66 + y_72 + y_79 + y_81 + y_86 + y_95 >= 1
 c_1_50: y_1 + y_6 + y_24 + y_35 + y_39 + y_50 + y_62 + y_70 + y_74 + y_85
   >= 1
 c_1_51: y_1 + y_5 + y_27 + y_35 + y_39 + y_49 + y_51 + y_65 + y_67 + y_72
   + y_75 + y_81 + y_86 + y_97 >= 1
 c_1_52: y_0 + y_16 + y_20 + y_38 + y_52 + y_55 + y_68 + y_73 + y_92 + y_96
   + y_98 >= 1
 c_1_53: y_3 + y_28 + y_36 + y_42 + y_45 + y_53 + y_54 + y_59 + y_61 + y_66
   + y_71 + y_91 >= 1
 c_1_54: y_3 + y_4 + y_16 + y_23 + y_28 + y_32 + y_36 + y_42 + y_45 + y_53
   + y_54 + y_57 + y_66 + y_71 + y_79 + y_91 >= 1
 c_1_55: y_0 + y_52 + y_55 + y_68 + y_76 + y_92 + y_98 >= 1
 c_1_56: y_12 + y_13 + y_15 + y_19 + y_26 + y_29 + y_47 + y_56 + y_64
   + y_78 + y_87 >= 1
 c_1_57: y_4 + y_16 + y_20 + y_32 + y_36 + y_38 + y_42 + y_49 + y_54 + y_57
   + y_65 + y_66 + y_72 + y_73 + y_95 >= 1
 c_1_58: y_6 + y_58 + y_70 + y_80 + y_85 >= 1
 c_1_59: y_21 + y_23 + y_53 + y_59 + y_83 + y_88 + y_91 >= 1
 c_1_60: y_7 + y_9 + y_14 + y_30 + y_37 + y_60 + y_62 + y_69 + y_84 + y_89
   >= 1
 c_1_61: y_3 + y_25 + y_28 + y_36 + y_43 + y_44 + y_45 + y_46 + y_53 + y_61
   + y_63 + y_71 + y_99 >= 1
 c_1_62: y_1 + y_7 + y_9 + y_14 + y_24 + y_30 + y_35 + y_39 + y_50 + y_60
   + y_62 + y_74 + y_85 >= 1
 c_1_63: y_11 + y_18 + y_43 + y_46 + y_61 + y_63 + y_99 >= 1
 c_1_64: y_13 + y_15 + y_19 + y_26 + y_29 + y_47 + y_56 + y_64 + y_78
   + y_87 >= 1
 c_1_65: y_4 + y_5 + y_25 + y_27 + y_28 + y_32 + y_34 + y_36 + y_42 + y_44
   + y_49 + y_51 + y_57 + y_65 + y_66 + y_67 + y_72 + y_75 + y_79 + y_81
   + y_86 + y_97 >= 1
 c_1_66: y_3 + y_4 + y_16 + y_25 + y_27 + y_28 + y_32 + y_36 + y_42 + y_44
   + y_45 + y_49 + y_53 + y_54 + y_57 + y_65 + y_66 + y_71 + y_79 + y_86
   >= 1
 c_1_67: y_13 + y_15 + y_25 + y_26 + y_27 + y_29 + y_34 + y_40 + y_51
   + y_65 + y_67 + y_75 + y_79 + y_81 + y_86 + y_97 >= 1
 c_1_68: y_0 + y_8 + y_20 + y_31 + y_38 + y_52 + y_55 + y_68 + y_69 + y_73
   + y_76 + y_90 + y_92 + y_94 + y_95 + y_98 >= 1
 c_1_69: y_8 + y_9 + y_30 + y_31 + y_37 + y_48 + y_60 + y_68 + y_69 + y_76
   + y_77 + y_84 + y_89 + y_90 + y_92 + y_93 + y_94 >= 1
 c_1_70: y_6 + y_50 + y_58 + y_70 + y_74 + y_80 + y_85 >= 1
 c_1_71: y_3 + y_25 + y_28 + y_32 + y_36 + y_42 + y_44 + y_45 + y_53 + y_54
   + y_61 + y_66 + y_71 + y_79 >= 1
 c_1_72: y_1 + y_4 + y_5 + y_10 + y_31 + y_32 + y_35 + y_39 + y_49 + y_51
   + y_57 + y_65 + y_72 + y_81 + y_86 + y_95 >= 1
 c_1_73: y_0 + y_4 + y_8 + y_10 + y_16 + y_20 + y_31 + y_38 + y_52 + y_57
   + y_68 + y_73 + y_76 + y_90 + y_92 + y_94 + y_95 + y_96 + y_98 >= 1
 c_1_74: y_6 + y_7 + y_24 + y_50 + y_62 + y_70 + y_74 + y_85 >= 1
 c_1_75: y_13 + y_15 + y_25 + y_27 + y_29 + y_32 + y_34 + y_40 + y_44
   + y_51 + y_65 + y_67 + y_75 + y_79 + y_86 + y_97 >= 1
 c_1_76: y_0 + y_8 + y_20 + y_31 + y_55 + y_68 + y_69 + y_73 + y_76 + y_89
   + y_90 + y_92 + y_93 + y_94 >= 1
 c_1_77: y_9 + y_37 + y_48 + y_69 + y_77 + y_84 + y_89 + y_93 >= 1
 c_1_78: y_12 + y_13 + y_15 + y_17 + y_26 + y_56 + y_64 + y_78 + y_82 >= 1
 c_1_79: y_3 + y_25 + y_27 + y_28 + y_32 + y_34 + y_36 + y_42 + y_44 + y_45
   + y_49 + y_54 + y_65 + y_66 + y_67 + y_71 + y_75 + y_79 + y_86 >= 1
 c_1_80: y_2 + y_6 + y_19 + y_58 + y_70 + y_80 + y_87 >= 1
 c_1_81: y_1 + y_5 + y_29 + y_35 + y_39 + y_49 + y_51 + y_65 + y_67 + y_72
   + y_81 + y_86 + y_97 >= 1
 c_1_82: y_12 + y_13 + y_15 + y_17 + y_22 + y_34 + y_40 + y_78 + y_82 >= 1
 c_1_83: y_21 + y_33 + y_41 + y_59 + y_83 + y_88 >= 1
 c_1_84: y_9 + y_37 + y_48 + y_60 + y_69 + y_77 + y_84 + y_89 + y_93 >= 1
 c_1_85: y_6 + y_50 + y_58 + y_62 + y_70 + y_74 + y_85 >= 1
 c_1_86: y_5 + y_13 + y_25 + y_27 + y_32 + y_34 + y_44 + y_49 + y_51 + y_65
   + y_66 + y_67 + y_72 + y_75 + y_79 + y_81 + y_86 + y_97 >= 1
 c_1_87: y_2 + y_19 + y_26 + y_29 + y_47 + y_56 + y_64 + y_80 + y_87 >= 1
 c_1_88: y_21 + y_23 + y_41 + y_59 + y_83 + y_88 + y_91 >= 1
 c_1_89: y_9 + y_30 + y_37 + y_48 + y_60 + y_69 + y_76 + y_77 + y_84 + y_89
   + y_93 >= 1
 c_1_90: y_8 + y_9 + y_10 + y_20 + y_30 + y_31 + y_39 + y_68 + y_69 + y_73
   + y_76 + y_90 + y_92 + y_94 + y_95 >= 1
 c_1_91: y_21 + y_23 + y_45 + y_53 + y_54 + y_59 + y_88 + y_91 >= 1
 c_1_92: y_0 + y_8 + y_20 + y_31 + y_38 + y_52 + y_55 + y_68 + y_69 + y_73
   + y_76 + y_90 + y_92 + y_94 + y_96 + y_98 >= 1
 c_1_93: y_8 + y_9 + y_37 + y_48 + y_69 + y_76 + y_77 + y_84 + y_89 + y_93
   >= 1
 c_1_94: y_0 + y_8 + y_10 + y_20 + y_30 + y_31 + y_38 + y_68 + y_69 + y_73
   + y_76 + y_90 + y_92 + y_94 + y_95 >= 1
 c_1_95: y_1 + y_4 + y_5 + y_8 + y_10 + y_16 + y_20 + y_31 + y_38 + y_39
   + y_42 + y_49 + y_57 + y_68 + y_72 + y_73 + y_90 + y_94 + y_95 >= 1
 c_1_96: y_0 + y_16 + y_23 + y_38 + y_52 + y_73 + y_92 + y_96 + y_98 >= 1
 c_1_97: y_13 + y_15 + y_26 + y_27 + y_29 + y_34 + y_40 + y_51 + y_65
   + y_67 + y_75 + y_81 + y_86 + y_97 >= 1
 c_1_98: y_0 + y_20 + y_38 + y_52 + y_55 + y_68 + y_73 + y_92 + y_96 + y_98
   >= 1
 c_1_99: y_11 + y_18 + y_43 + y_46 + y_61 + y_63 + y_99 >= 1
Bounds
 Constant = 1
Binaries
 y_0 y_1 y_2 y_3 y_4 y_5 y_6 y_7 y_8 y_9 y_10 y_11 y_12 y_13 y_14 y_15 y_16
 y_17 y_18 y_19 y_20 y_21 y_22 y_23 y_24 y_25 y_26 y_27 y_28 y_29 y_30 y_31
 y_32 y_33 y_34 y_35 y_36 y_37 y_38 y_39 y_40 y_41 y_42 y_43 y_44 y_45 y_46
 y_47 y_48 y_49 y_50 y_51 y_52 y_53 y_54 y_55 y_56 y_57 y_58 y_59 y_60 y_61
 y_62 y_63 y_64 y_65 y_66 y_67 y_68 y_69 y_70 y_71 y_72 y_73 y_74 y_75 y_76
 y_77 y_78 y_79 y_80 y_81 y_82 y_83 y_84 y_85 y_86 y_87 y_88 y_89 y_90 y_91
 y_92 y_93 y_94 y_95 y_96 y_97 y_98 y_99
End
